NAME : XML100_3216_19
DIMENSION : 101
NB_CLUSTERS : 3
CLUSTERING_ALG : KMedoids
CLUSTERING_PARAMS : k(2)
CLUSTERS
1 0
2 1 5 8 18 19 20 23 24 25 26 28 36 46 50 52 56 58 59 61 65 68 69 70 72 73 74 80 81 82 84 85 87 94 95 100
3 2 3 4 6 7 9 10 11 12 13 14 15 16 17 21 22 27 29 30 31 32 33 34 35 37 38 39 40 41 42 43 44 45 47 48 49 51 53 54 55 57 60 62 63 64 66 67 71 75 76 77 78 79 83 86 88 89 90 91 92 93 96 97 98 99
EOF